1 -340 -349 0
-340 -342 -349 0
-15 340 -349 0
-342 -343 -346 -349 0
340 342 -343 -345 -349 0
342 -343 -349 -345 0
d 340 342 -343 -345 -349 0
-343 -345 -346 -349 0
-340 342 -345 -349 0
342 -344 343 -345 -349 0
-344 -345 -346 -349 0
340 -345 -346 -347 -349 0
-345 -346 -349 -347 0
d 340 -345 -346 -347 -349 0
-340 345 -348 -349 0
345 -348 -349 0
d -340 345 -348 -349 0
340 346 -349 0
-340 -345 -349 0
d -340 342 -345 -349 0
-345 -349 0
d -340 -345 -349 0
14 -5 -346 15 0
340 -349 0
d -15 340 -349 0
345 -349 0
d 345 -348 -349 0
-349 0
14 -15 0
-15 -340 0
d -5 -15 -340 0
-340 0
15 0
14 0
-1 0
-326 0
-327 0
336 0
0
